c "899159.clq"
p edge 249 3728
e 1 17
e 1 36
e 1 97
e 1 122
e 1 131
e 2 17
e 2 18
e 2 19
e 2 20
e 2 21
e 2 22
e 2 23
e 2 25
e 2 27
e 2 28
e 2 33
e 2 35
e 2 43
e 2 44
e 2 46
e 2 48
e 2 49
e 2 56
e 2 58
e 2 61
e 2 63
e 2 72
e 2 79
e 2 84
e 2 89
e 2 99
e 2 100
e 2 101
e 2 111
e 2 119
e 2 124
e 2 133
e 2 154
e 2 172
e 2 191
e 2 192
e 2 204
e 2 217
e 2 219
e 2 220
e 2 229
e 2 234
e 2 239
e 2 247
e 3 17
e 3 18
e 3 19
e 3 20
e 3 21
e 3 22
e 3 24
e 3 26
e 3 28
e 3 31
e 3 51
e 3 53
e 3 54
e 3 64
e 3 65
e 3 66
e 3 79
e 3 81
e 3 84
e 3 90
e 3 129
e 3 131
e 3 144
e 3 151
e 3 152
e 3 162
e 3 174
e 3 175
e 3 180
e 3 183
e 3 197
e 3 219
e 3 232
e 3 237
e 3 242
e 3 248
e 4 17
e 4 18
e 4 19
e 4 20
e 4 21
e 4 22
e 4 24
e 4 28
e 4 30
e 4 31
e 4 34
e 4 39
e 4 52
e 4 56
e 4 68
e 4 76
e 4 80
e 4 121
e 4 123
e 4 134
e 4 138
e 4 165
e 4 167
e 4 176
e 4 182
e 4 185
e 4 196
e 4 199
e 4 205
e 4 227
e 4 229
e 5 17
e 5 18
e 5 19
e 5 20
e 5 21
e 5 22
e 5 23
e 5 24
e 5 25
e 5 27
e 5 29
e 5 33
e 5 34
e 5 38
e 5 40
e 5 41
e 5 51
e 5 52
e 5 68
e 5 69
e 5 78
e 5 82
e 5 111
e 5 112
e 5 125
e 5 129
e 5 130
e 5 134
e 5 142
e 5 157
e 5 163
e 5 170
e 5 172
e 5 181
e 5 188
e 5 190
e 5 193
e 5 197
e 5 219
e 5 230
e 6 17
e 6 18
e 6 20
e 6 21
e 6 22
e 6 23
e 6 26
e 6 27
e 6 35
e 6 38
e 6 40
e 6 47
e 6 48
e 6 50
e 6 59
e 6 68
e 6 71
e 6 74
e 6 80
e 6 99
e 6 102
e 6 108
e 6 144
e 6 146
e 6 154
e 6 158
e 6 196
e 6 200
e 6 205
e 6 226
e 6 227
e 6 232
e 7 17
e 7 18
e 7 19
e 7 20
e 7 21
e 7 22
e 7 23
e 7 24
e 7 25
e 7 26
e 7 28
e 7 29
e 7 32
e 7 33
e 7 34
e 7 35
e 7 38
e 7 41
e 7 46
e 7 49
e 7 57
e 7 66
e 7 67
e 7 72
e 7 73
e 7 74
e 7 81
e 7 87
e 7 88
e 7 89
e 7 90
e 7 101
e 7 106
e 7 113
e 7 114
e 7 116
e 7 138
e 7 151
e 7 172
e 7 186
e 7 239
e 7 241
e 8 17
e 8 18
e 8 19
e 8 20
e 8 24
e 8 27
e 8 32
e 8 42
e 8 47
e 8 48
e 8 53
e 8 69
e 8 108
e 8 112
e 8 117
e 8 164
e 8 169
e 8 173
e 8 179
e 8 202
e 8 203
e 8 206
e 8 235
e 9 17
e 9 18
e 9 19
e 9 20
e 9 21
e 9 22
e 9 23
e 9 24
e 9 25
e 9 27
e 9 28
e 9 29
e 9 30
e 9 33
e 9 35
e 9 37
e 9 39
e 9 41
e 9 43
e 9 44
e 9 47
e 9 49
e 9 50
e 9 52
e 9 55
e 9 56
e 9 62
e 9 73
e 9 74
e 9 75
e 9 76
e 9 80
e 9 86
e 9 91
e 9 100
e 9 101
e 9 103
e 9 104
e 9 108
e 9 109
e 9 113
e 9 116
e 9 121
e 9 123
e 9 127
e 9 129
e 9 135
e 9 136
e 9 137
e 9 142
e 9 157
e 9 166
e 9 175
e 9 176
e 9 178
e 9 184
e 9 187
e 9 188
e 9 196
e 9 199
e 9 203
e 9 208
e 9 211
e 9 213
e 9 214
e 9 217
e 9 229
e 9 232
e 9 234
e 9 237
e 10 17
e 10 18
e 10 19
e 10 20
e 10 21
e 10 22
e 10 25
e 10 26
e 10 30
e 10 31
e 10 33
e 10 37
e 10 39
e 10 43
e 10 44
e 10 45
e 10 47
e 10 50
e 10 54
e 10 57
e 10 58
e 10 60
e 10 62
e 10 65
e 10 70
e 10 87
e 10 94
e 10 98
e 10 99
e 10 101
e 10 103
e 10 104
e 10 110
e 10 115
e 10 119
e 10 128
e 10 134
e 10 141
e 10 145
e 10 152
e 10 164
e 10 170
e 10 172
e 10 174
e 10 178
e 10 194
e 10 208
e 10 226
e 10 242
e 11 17
e 11 18
e 11 19
e 11 20
e 11 21
e 11 23
e 11 24
e 11 26
e 11 27
e 11 28
e 11 33
e 11 34
e 11 40
e 11 41
e 11 42
e 11 48
e 11 57
e 11 58
e 11 61
e 11 62
e 11 63
e 11 64
e 11 67
e 11 85
e 11 86
e 11 89
e 11 90
e 11 93
e 11 94
e 11 95
e 11 98
e 11 106
e 11 112
e 11 117
e 11 127
e 11 135
e 11 139
e 11 150
e 11 152
e 11 159
e 11 165
e 11 179
e 11 184
e 11 195
e 11 201
e 11 210
e 11 218
e 11 219
e 11 223
e 11 224
e 11 227
e 11 231
e 11 243
e 12 17
e 12 18
e 12 19
e 12 23
e 12 28
e 12 30
e 12 44
e 12 47
e 12 48
e 12 52
e 12 53
e 12 54
e 12 70
e 12 78
e 12 81
e 12 84
e 12 101
e 12 117
e 12 123
e 12 129
e 12 132
e 12 144
e 12 154
e 12 160
e 12 166
e 12 183
e 12 185
e 12 201
e 12 209
e 12 216
e 12 221
e 13 17
e 13 18
e 13 19
e 13 20
e 13 21
e 13 22
e 13 23
e 13 24
e 13 25
e 13 28
e 13 29
e 13 30
e 13 32
e 13 34
e 13 36
e 13 37
e 13 40
e 13 42
e 13 45
e 13 59
e 13 60
e 13 66
e 13 69
e 13 79
e 13 80
e 13 87
e 13 91
e 13 93
e 13 97
e 13 99
e 13 100
e 13 115
e 13 127
e 13 137
e 13 151
e 13 155
e 13 167
e 13 178
e 13 180
e 13 181
e 13 185
e 13 188
e 13 199
e 13 215
e 13 217
e 13 223
e 13 225
e 13 230
e 13 232
e 13 235
e 13 242
e 14 17
e 14 18
e 14 19
e 14 21
e 14 22
e 14 23
e 14 25
e 14 26
e 14 29
e 14 30
e 14 31
e 14 36
e 14 49
e 14 56
e 14 62
e 14 63
e 14 64
e 14 84
e 14 111
e 14 118
e 14 130
e 14 136
e 14 147
e 14 150
e 14 165
e 14 166
e 14 167
e 14 180
e 14 184
e 14 223
e 14 237
e 15 17
e 15 18
e 15 19
e 15 20
e 15 21
e 15 22
e 15 26
e 15 31
e 15 35
e 15 36
e 15 37
e 15 41
e 15 44
e 15 46
e 15 49
e 15 50
e 15 55
e 15 64
e 15 67
e 15 76
e 15 85
e 15 87
e 15 92
e 15 95
e 15 102
e 15 104
e 15 111
e 15 115
e 15 120
e 15 140
e 15 146
e 15 159
e 15 168
e 15 170
e 15 211
e 15 230
e 15 232
e 15 245
e 16 17
e 16 18
e 16 19
e 16 20
e 16 23
e 16 24
e 16 25
e 16 29
e 16 30
e 16 32
e 16 35
e 16 38
e 16 39
e 16 42
e 16 45
e 16 53
e 16 55
e 16 60
e 16 61
e 16 63
e 16 65
e 16 69
e 16 71
e 16 72
e 16 75
e 16 86
e 16 92
e 16 109
e 16 114
e 16 119
e 16 131
e 16 134
e 16 140
e 16 142
e 16 164
e 16 179
e 16 186
e 16 203
e 16 205
e 16 231
e 16 244
e 16 248
e 17 18
e 17 19
e 17 20
e 17 21
e 17 22
e 17 23
e 17 24
e 17 25
e 17 26
e 17 27
e 17 28
e 17 29
e 17 30
e 17 31
e 17 32
e 17 33
e 17 34
e 17 35
e 17 36
e 17 37
e 17 38
e 17 39
e 17 41
e 17 43
e 17 44
e 17 45
e 17 46
e 17 48
e 17 49
e 17 50
e 17 51
e 17 53
e 17 54
e 17 55
e 17 56
e 17 57
e 17 58
e 17 59
e 17 65
e 17 66
e 17 70
e 17 73
e 17 74
e 17 77
e 17 83
e 17 85
e 17 86
e 17 89
e 17 97
e 17 98
e 17 100
e 17 101
e 17 105
e 17 106
e 17 107
e 17 110
e 17 114
e 17 115
e 17 116
e 17 117
e 17 124
e 17 129
e 17 132
e 17 137
e 17 144
e 17 148
e 17 149
e 17 150
e 17 151
e 17 152
e 17 154
e 17 158
e 17 160
e 17 164
e 17 172
e 17 175
e 17 179
e 17 188
e 17 189
e 17 196
e 17 201
e 17 209
e 17 211
e 17 222
e 17 230
e 17 234
e 17 235
e 17 240
e 17 243
e 17 248
e 17 249
e 18 19
e 18 20
e 18 21
e 18 22
e 18 23
e 18 24
e 18 25
e 18 26
e 18 27
e 18 28
e 18 29
e 18 30
e 18 31
e 18 32
e 18 33
e 18 34
e 18 36
e 18 37
e 18 38
e 18 39
e 18 40
e 18 41
e 18 43
e 18 44
e 18 45
e 18 48
e 18 52
e 18 53
e 18 54
e 18 57
e 18 59
e 18 61
e 18 66
e 18 67
e 18 71
e 18 74
e 18 75
e 18 76
e 18 80
e 18 82
e 18 94
e 18 99
e 18 100
e 18 102
e 18 110
e 18 116
e 18 117
e 18 120
e 18 125
e 18 126
e 18 127
e 18 133
e 18 134
e 18 136
e 18 138
e 18 150
e 18 153
e 18 156
e 18 158
e 18 161
e 18 165
e 18 167
e 18 171
e 18 173
e 18 175
e 18 176
e 18 184
e 18 193
e 18 195
e 18 198
e 18 200
e 18 205
e 18 212
e 18 219
e 18 220
e 18 224
e 18 225
e 18 227
e 18 237
e 18 244
e 19 20
e 19 21
e 19 22
e 19 23
e 19 24
e 19 25
e 19 26
e 19 27
e 19 28
e 19 29
e 19 30
e 19 31
e 19 33
e 19 36
e 19 37
e 19 38
e 19 40
e 19 41
e 19 42
e 19 43
e 19 44
e 19 45
e 19 47
e 19 49
e 19 50
e 19 51
e 19 53
e 19 54
e 19 55
e 19 56
e 19 57
e 19 58
e 19 59
e 19 60
e 19 63
e 19 65
e 19 70
e 19 71
e 19 75
e 19 77
e 19 78
e 19 81
e 19 82
e 19 83
e 19 91
e 19 92
e 19 95
e 19 105
e 19 106
e 19 108
e 19 112
e 19 118
e 19 119
e 19 121
e 19 122
e 19 123
e 19 124
e 19 126
e 19 127
e 19 135
e 19 139
e 19 143
e 19 144
e 19 147
e 19 152
e 19 155
e 19 157
e 19 167
e 19 168
e 19 171
e 19 185
e 19 195
e 19 201
e 19 206
e 19 207
e 19 208
e 19 215
e 19 216
e 19 221
e 19 224
e 19 226
e 19 228
e 19 231
e 19 235
e 19 237
e 19 238
e 19 239
e 19 245
e 20 21
e 20 22
e 20 23
e 20 24
e 20 25
e 20 26
e 20 27
e 20 29
e 20 31
e 20 32
e 20 33
e 20 34
e 20 35
e 20 36
e 20 38
e 20 39
e 20 40
e 20 42
e 20 43
e 20 44
e 20 45
e 20 50
e 20 54
e 20 55
e 20 58
e 20 61
e 20 63
e 20 64
e 20 65
e 20 67
e 20 70
e 20 71
e 20 73
e 20 74
e 20 75
e 20 76
e 20 77
e 20 79
e 20 80
e 20 81
e 20 84
e 20 85
e 20 87
e 20 91
e 20 93
e 20 95
e 20 99
e 20 100
e 20 102
e 20 107
e 20 113
e 20 124
e 20 126
e 20 127
e 20 134
e 20 136
e 20 137
e 20 139
e 20 141
e 20 143
e 20 145
e 20 149
e 20 150
e 20 158
e 20 159
e 20 160
e 20 164
e 20 167
e 20 170
e 20 174
e 20 176
e 20 189
e 20 190
e 20 192
e 20 193
e 20 202
e 20 205
e 20 209
e 20 214
e 20 226
e 20 231
e 20 235
e 20 241
e 20 242
e 20 246
e 21 22
e 21 23
e 21 24
e 21 25
e 21 26
e 21 27
e 21 28
e 21 29
e 21 30
e 21 31
e 21 32
e 21 33
e 21 34
e 21 35
e 21 36
e 21 37
e 21 38
e 21 39
e 21 40
e 21 42
e 21 43
e 21 44
e 21 45
e 21 46
e 21 47
e 21 52
e 21 53
e 21 57
e 21 60
e 21 63
e 21 65
e 21 68
e 21 71
e 21 77
e 21 78
e 21 79
e 21 83
e 21 84
e 21 92
e 21 98
e 21 100
e 21 101
e 21 104
e 21 111
e 21 118
e 21 126
e 21 128
e 21 132
e 21 136
e 21 142
e 21 148
e 21 149
e 21 158
e 21 168
e 21 173
e 21 174
e 21 175
e 21 179
e 21 182
e 21 186
e 21 187
e 21 199
e 21 209
e 21 211
e 21 213
e 21 228
e 21 231
e 21 232
e 21 235
e 21 236
e 21 246
e 22 23
e 22 24
e 22 25
e 22 26
e 22 27
e 22 30
e 22 31
e 22 32
e 22 35
e 22 36
e 22 37
e 22 39
e 22 40
e 22 43
e 22 46
e 22 48
e 22 50
e 22 51
e 22 52
e 22 54
e 22 55
e 22 56
e 22 57
e 22 58
e 22 59
e 22 60
e 22 62
e 22 63
e 22 65
e 22 68
e 22 71
e 22 76
e 22 80
e 22 82
e 22 86
e 22 89
e 22 90
e 22 98
e 22 99
e 22 100
e 22 102
e 22 110
e 22 111
e 22 112
e 22 115
e 22 118
e 22 119
e 22 121
e 22 129
e 22 132
e 22 133
e 22 138
e 22 144
e 22 149
e 22 150
e 22 151
e 22 154
e 22 161
e 22 163
e 22 164
e 22 169
e 22 172
e 22 176
e 22 183
e 22 185
e 22 188
e 22 189
e 22 192
e 22 202
e 22 203
e 22 213
e 22 217
e 22 224
e 22 229
e 22 245
e 23 24
e 23 25
e 23 26
e 23 27
e 23 28
e 23 31
e 23 32
e 23 34
e 23 37
e 23 40
e 23 46
e 23 49
e 23 55
e 23 57
e 23 63
e 23 66
e 23 68
e 23 75
e 23 93
e 23 97
e 23 103
e 23 108
e 23 109
e 23 115
e 23 118
e 23 119
e 23 122
e 23 125
e 23 135
e 23 138
e 23 151
e 23 152
e 23 153
e 23 154
e 23 155
e 23 158
e 23 173
e 23 185
e 23 195
e 23 196
e 23 203
e 23 207
e 23 210
e 23 212
e 23 218
e 23 222
e 23 234
e 23 247
e 24 25
e 24 26
e 24 27
e 24 28
e 24 29
e 24 30
e 24 31
e 24 32
e 24 33
e 24 34
e 24 35
e 24 38
e 24 39
e 24 41
e 24 42
e 24 43
e 24 46
e 24 48
e 24 53
e 24 55
e 24 56
e 24 58
e 24 59
e 24 60
e 24 61
e 24 72
e 24 76
e 24 77
e 24 78
e 24 80
e 24 81
e 24 83
e 24 84
e 24 86
e 24 90
e 24 93
e 24 95
e 24 101
e 24 102
e 24 112
e 24 118
e 24 125
e 24 134
e 24 135
e 24 138
e 24 139
e 24 147
e 24 152
e 24 157
e 24 170
e 24 179
e 24 183
e 24 200
e 24 201
e 24 202
e 24 204
e 24 207
e 24 212
e 24 213
e 24 218
e 24 223
e 24 243
e 25 26
e 25 27
e 25 28
e 25 29
e 25 30
e 25 31
e 25 37
e 25 40
e 25 41
e 25 43
e 25 45
e 25 47
e 25 49
e 25 52
e 25 53
e 25 58
e 25 60
e 25 65
e 25 66
e 25 67
e 25 68
e 25 69
e 25 70
e 25 72
e 25 73
e 25 75
e 25 82
e 25 84
e 25 87
e 25 88
e 25 90
e 25 93
e 25 94
e 25 97
e 25 101
e 25 103
e 25 117
e 25 122
e 25 125
e 25 128
e 25 129
e 25 131
e 25 132
e 25 137
e 25 147
e 25 150
e 25 153
e 25 154
e 25 166
e 25 190
e 25 191
e 25 196
e 25 199
e 25 200
e 25 204
e 25 210
e 25 212
e 25 217
e 25 244
e 25 246
e 25 248
e 25 249
e 26 27
e 26 28
e 26 29
e 26 30
e 26 31
e 26 32
e 26 35
e 26 36
e 26 40
e 26 46
e 26 50
e 26 54
e 26 57
e 26 60
e 26 61
e 26 62
e 26 64
e 26 65
e 26 66
e 26 67
e 26 71
e 26 74
e 26 78
e 26 80
e 26 82
e 26 93
e 26 96
e 26 98
e 26 112
e 26 115
e 26 121
e 26 122
e 26 124
e 26 125
e 26 130
e 26 134
e 26 135
e 26 139
e 26 143
e 26 144
e 26 146
e 26 159
e 26 160
e 26 163
e 26 167
e 26 179
e 26 195
e 26 196
e 26 210
e 26 217
e 26 241
e 26 245
e 26 246
e 27 29
e 27 30
e 27 32
e 27 33
e 27 34
e 27 36
e 27 38
e 27 47
e 27 49
e 27 50
e 27 51
e 27 52
e 27 54
e 27 58
e 27 62
e 27 63
e 27 64
e 27 67
e 27 68
e 27 69
e 27 70
e 27 74
e 27 79
e 27 85
e 27 93
e 27 98
e 27 105
e 27 109
e 27 110
e 27 116
e 27 117
e 27 122
e 27 123
e 27 124
e 27 125
e 27 126
e 27 133
e 27 151
e 27 160
e 27 161
e 27 168
e 27 169
e 27 181
e 27 182
e 27 189
e 27 193
e 27 194
e 27 199
e 27 200
e 27 207
e 27 217
e 27 227
e 27 244
e 28 29
e 28 34
e 28 36
e 28 38
e 28 41
e 28 43
e 28 45
e 28 48
e 28 50
e 28 57
e 28 60
e 28 61
e 28 62
e 28 64
e 28 72
e 28 79
e 28 80
e 28 81
e 28 83
e 28 89
e 28 91
e 28 98
e 28 103
e 28 110
e 28 113
e 28 114
e 28 124
e 28 125
e 28 130
e 28 143
e 28 156
e 28 174
e 28 179
e 28 180
e 28 181
e 28 184
e 28 201
e 28 205
e 28 221
e 28 234
e 29 32
e 29 33
e 29 35
e 29 37
e 29 39
e 29 40
e 29 41
e 29 42
e 29 43
e 29 44
e 29 47
e 29 51
e 29 52
e 29 54
e 29 56
e 29 59
e 29 71
e 29 85
e 29 87
e 29 93
e 29 94
e 29 103
e 29 105
e 29 110
e 29 114
e 29 121
e 29 123
e 29 127
e 29 135
e 29 136
e 29 140
e 29 142
e 29 143
e 29 145
e 29 146
e 29 147
e 29 152
e 29 153
e 29 156
e 29 161
e 29 164
e 29 178
e 29 182
e 29 193
e 29 194
e 29 197
e 29 198
e 29 206
e 29 213
e 29 215
e 29 218
e 29 219
e 29 222
e 29 230
e 29 236
e 29 247
e 30 31
e 30 32
e 30 33
e 30 36
e 30 37
e 30 38
e 30 40
e 30 42
e 30 43
e 30 46
e 30 52
e 30 53
e 30 55
e 30 63
e 30 64
e 30 66
e 30 71
e 30 74
e 30 82
e 30 88
e 30 89
e 30 97
e 30 107
e 30 108
e 30 111
e 30 113
e 30 114
e 30 119
e 30 128
e 30 136
e 30 138
e 30 141
e 30 145
e 30 148
e 30 149
e 30 154
e 30 161
e 30 162
e 30 163
e 30 167
e 30 168
e 30 169
e 30 172
e 30 175
e 30 178
e 30 179
e 30 186
e 30 201
e 30 207
e 30 212
e 30 222
e 30 237
e 30 245
e 30 247
e 31 32
e 31 34
e 31 35
e 31 36
e 31 37
e 31 38
e 31 41
e 31 44
e 31 45
e 31 48
e 31 62
e 31 67
e 31 69
e 31 72
e 31 73
e 31 74
e 31 81
e 31 85
e 31 90
e 31 91
e 31 94
e 31 95
e 31 116
e 31 120
e 31 123
e 31 124
e 31 126
e 31 143
e 31 151
e 31 152
e 31 163
e 31 180
e 31 184
e 31 185
e 31 187
e 31 193
e 32 33
e 32 34
e 32 35
e 32 37
e 32 39
e 32 42
e 32 50
e 32 51
e 32 53
e 32 55
e 32 58
e 32 67
e 32 68
e 32 76
e 32 84
e 32 85
e 32 93
e 32 94
e 32 102
e 32 103
e 32 111
e 32 112
e 32 119
e 32 120
e 32 122
e 32 123
e 32 127
e 32 128
e 32 130
e 32 131
e 32 139
e 32 145
e 32 154
e 32 159
e 32 161
e 32 164
e 32 165
e 32 177
e 32 184
e 32 195
e 32 230
e 32 240
e 32 247
e 33 34
e 33 38
e 33 40
e 33 42
e 33 44
e 33 45
e 33 46
e 33 47
e 33 48
e 33 49
e 33 51
e 33 53
e 33 58
e 33 62
e 33 65
e 33 66
e 33 70
e 33 71
e 33 72
e 33 74
e 33 79
e 33 82
e 33 83
e 33 88
e 33 89
e 33 90
e 33 96
e 33 99
e 33 105
e 33 106
e 33 107
e 33 109
e 33 115
e 33 117
e 33 126
e 33 128
e 33 136
e 33 137
e 33 148
e 33 150
e 33 157
e 33 159
e 33 167
e 33 189
e 33 192
e 33 206
e 33 213
e 33 228
e 33 230
e 33 233
e 33 236
e 34 35
e 34 36
e 34 38
e 34 39
e 34 42
e 34 43
e 34 44
e 34 47
e 34 48
e 34 50
e 34 51
e 34 58
e 34 59
e 34 62
e 34 64
e 34 66
e 34 67
e 34 68
e 34 70
e 34 75
e 34 76
e 34 77
e 34 80
e 34 83
e 34 89
e 34 91
e 34 94
e 34 95
e 34 96
e 34 104
e 34 105
e 34 113
e 34 114
e 34 116
e 34 121
e 34 124
e 34 125
e 34 134
e 34 137
e 34 140
e 34 144
e 34 149
e 34 153
e 34 165
e 34 167
e 34 168
e 34 169
e 34 175
e 34 178
e 34 182
e 34 183
e 34 187
e 34 192
e 34 195
e 34 200
e 34 214
e 34 216
e 34 218
e 34 233
e 34 236
e 34 243
e 35 37
e 35 39
e 35 40
e 35 41
e 35 46
e 35 49
e 35 52
e 35 60
e 35 63
e 35 67
e 35 68
e 35 69
e 35 70
e 35 73
e 35 75
e 35 77
e 35 83
e 35 84
e 35 91
e 35 92
e 35 94
e 35 96
e 35 98
e 35 111
e 35 132
e 35 137
e 35 142
e 35 145
e 35 151
e 35 159
e 35 161
e 35 172
e 35 173
e 35 177
e 35 178
e 35 186
e 35 188
e 35 203
e 35 219
e 35 225
e 35 237
e 35 238
e 35 241
e 35 244
e 36 39
e 36 42
e 36 43
e 36 45
e 36 47
e 36 48
e 36 49
e 36 51
e 36 52
e 36 53
e 36 54
e 36 57
e 36 58
e 36 59
e 36 61
e 36 67
e 36 70
e 36 71
e 36 72
e 36 73
e 36 77
e 36 78
e 36 80
e 36 82
e 36 86
e 36 90
e 36 94
e 36 95
e 36 102
e 36 106
e 36 109
e 36 110
e 36 112
e 36 118
e 36 119
e 36 120
e 36 122
e 36 131
e 36 141
e 36 145
e 36 147
e 36 150
e 36 163
e 36 168
e 36 173
e 36 179
e 36 187
e 36 195
e 36 212
e 36 249
e 37 47
e 37 50
e 37 54
e 37 56
e 37 62
e 37 64
e 37 65
e 37 66
e 37 75
e 37 81
e 37 83
e 37 90
e 37 94
e 37 97
e 37 99
e 37 121
e 37 132
e 37 140
e 37 141
e 37 148
e 37 158
e 37 161
e 37 174
e 37 175
e 37 186
e 37 190
e 37 193
e 37 201
e 37 202
e 37 206
e 37 214
e 37 217
e 37 233
e 37 238
e 37 242
e 38 39
e 38 41
e 38 42
e 38 44
e 38 51
e 38 52
e 38 61
e 38 69
e 38 72
e 38 73
e 38 76
e 38 82
e 38 87
e 38 88
e 38 92
e 38 106
e 38 107
e 38 110
e 38 111
e 38 118
e 38 120
e 38 141
e 38 150
e 38 155
e 38 156
e 38 170
e 38 205
e 38 223
e 38 247
e 39 42
e 39 44
e 39 46
e 39 56
e 39 62
e 39 64
e 39 65
e 39 66
e 39 75
e 39 79
e 39 86
e 39 87
e 39 89
e 39 101
e 39 102
e 39 107
e 39 112
e 39 115
e 39 127
e 39 160
e 39 165
e 39 187
e 39 189
e 39 193
e 39 211
e 39 213
e 39 225
e 39 231
e 40 41
e 40 45
e 40 46
e 40 54
e 40 55
e 40 60
e 40 61
e 40 63
e 40 68
e 40 69
e 40 81
e 40 83
e 40 88
e 40 93
e 40 100
e 40 102
e 40 108
e 40 113
e 40 114
e 40 119
e 40 120
e 40 121
e 40 127
e 40 138
e 40 139
e 40 154
e 40 161
e 40 170
e 40 178
e 40 187
e 40 190
e 40 195
e 40 214
e 40 222
e 40 229
e 40 232
e 40 234
e 40 238
e 41 45
e 41 48
e 41 49
e 41 56
e 41 59
e 41 69
e 41 71
e 41 73
e 41 83
e 41 89
e 41 92
e 41 106
e 41 109
e 41 118
e 41 121
e 41 133
e 41 139
e 41 148
e 41 153
e 41 167
e 41 174
e 41 181
e 41 182
e 41 198
e 41 206
e 41 221
e 41 233
e 41 245
e 42 51
e 42 55
e 42 56
e 42 65
e 42 69
e 42 74
e 42 76
e 42 85
e 42 87
e 42 92
e 42 105
e 42 107
e 42 111
e 42 125
e 42 154
e 42 155
e 42 158
e 42 183
e 42 191
e 42 194
e 42 227
e 42 233
e 42 239
e 42 246
e 43 46
e 43 47
e 43 50
e 43 55
e 43 56
e 43 57
e 43 62
e 43 65
e 43 67
e 43 75
e 43 79
e 43 80
e 43 98
e 43 117
e 43 142
e 43 156
e 43 176
e 43 179
e 43 180
e 43 188
e 43 189
e 43 191
e 43 218
e 43 221
e 43 225
e 44 45
e 44 46
e 44 49
e 44 52
e 44 59
e 44 68
e 44 69
e 44 72
e 44 73
e 44 74
e 44 78
e 44 79
e 44 87
e 44 97
e 44 98
e 44 101
e 44 104
e 44 110
e 44 119
e 44 129
e 44 142
e 44 143
e 44 152
e 44 153
e 44 154
e 44 156
e 44 170
e 44 179
e 44 181
e 44 185
e 44 186
e 44 203
e 44 207
e 44 221
e 44 227
e 44 233
e 44 239
e 44 244
e 44 245
e 45 47
e 45 50
e 45 51
e 45 55
e 45 56
e 45 57
e 45 60
e 45 69
e 45 73
e 45 81
e 45 82
e 45 88
e 45 93
e 45 101
e 45 104
e 45 107
e 45 109
e 45 117
e 45 179
e 45 186
e 45 224
e 45 245
e 46 51
e 46 61
e 46 64
e 46 75
e 46 80
e 46 81
e 46 90
e 46 91
e 46 96
e 46 104
e 46 108
e 46 120
e 46 131
e 46 133
e 46 138
e 46 143
e 46 148
e 46 165
e 46 170
e 46 184
e 47 48
e 47 49
e 47 51
e 47 53
e 47 54
e 47 61
e 47 67
e 47 83
e 47 89
e 47 100
e 47 101
e 47 103
e 47 106
e 47 110
e 47 114
e 47 121
e 47 128
e 47 129
e 47 138
e 47 144
e 47 145
e 47 149
e 47 150
e 47 157
e 47 161
e 47 163
e 47 168
e 47 193
e 47 203
e 47 207
e 47 208
e 47 215
e 47 226
e 47 243
e 47 248
e 47 249
e 48 61
e 48 62
e 48 76
e 48 79
e 48 80
e 48 92
e 48 110
e 48 112
e 48 116
e 48 118
e 48 121
e 48 124
e 48 125
e 48 135
e 48 151
e 48 177
e 48 212
e 48 222
e 48 231
e 48 241
e 49 58
e 49 59
e 49 67
e 49 70
e 49 77
e 49 78
e 49 84
e 49 95
e 49 102
e 49 104
e 49 105
e 49 106
e 49 113
e 49 117
e 49 125
e 49 126
e 49 137
e 49 142
e 49 173
e 49 202
e 49 209
e 49 210
e 49 239
e 49 245
e 50 57
e 50 59
e 50 60
e 50 64
e 50 77
e 50 84
e 50 86
e 50 94
e 50 95
e 50 97
e 50 98
e 50 100
e 50 103
e 50 112
e 50 113
e 50 114
e 50 120
e 50 128
e 50 129
e 50 130
e 50 143
e 50 153
e 50 191
e 50 193
e 50 209
e 50 217
e 50 225
e 50 230
e 50 232
e 50 245
e 51 52
e 51 53
e 51 55
e 51 63
e 51 72
e 51 75
e 51 76
e 51 77
e 51 78
e 51 83
e 51 85
e 51 86
e 51 91
e 51 94
e 51 96
e 51 99
e 51 105
e 51 106
e 51 108
e 51 119
e 51 131
e 51 134
e 51 136
e 51 143
e 51 150
e 51 152
e 51 179
e 51 186
e 51 191
e 51 192
e 51 200
e 51 204
e 51 225
e 51 247
e 52 54
e 52 56
e 52 60
e 52 63
e 52 68
e 52 70
e 52 71
e 52 78
e 52 82
e 52 90
e 52 97
e 52 100
e 52 114
e 52 116
e 52 123
e 52 129
e 52 145
e 52 167
e 52 168
e 52 173
e 52 178
e 52 198
e 52 202
e 52 210
e 52 217
e 52 224
e 52 227
e 52 233
e 52 235
e 52 241
e 52 245
e 53 78
e 53 79
e 53 81
e 53 86
e 53 96
e 53 116
e 53 120
e 53 125
e 53 157
e 53 162
e 53 163
e 53 165
e 53 172
e 53 181
e 53 186
e 53 189
e 53 203
e 53 206
e 53 220
e 53 226
e 53 239
e 53 244
e 54 57
e 54 59
e 54 63
e 54 65
e 54 66
e 54 70
e 54 74
e 54 77
e 54 90
e 54 91
e 54 92
e 54 93
e 54 100
e 54 101
e 54 108
e 54 109
e 54 128
e 54 130
e 54 133
e 54 139
e 54 143
e 54 160
e 54 165
e 54 200
e 54 204
e 54 218
e 54 220
e 54 229
e 54 237
e 54 241
e 54 246
e 55 69
e 55 72
e 55 75
e 55 77
e 55 103
e 55 105
e 55 109
e 55 122
e 55 133
e 55 147
e 55 148
e 55 197
e 55 204
e 55 205
e 55 208
e 55 239
e 56 59
e 56 60
e 56 61
e 56 64
e 56 75
e 56 77
e 56 87
e 56 89
e 56 92
e 56 99
e 56 110
e 56 114
e 56 117
e 56 130
e 56 144
e 56 146
e 56 151
e 56 157
e 56 169
e 56 180
e 56 189
e 56 197
e 56 202
e 56 231
e 56 245
e 56 249
e 57 58
e 57 64
e 57 94
e 57 95
e 57 103
e 57 126
e 57 127
e 57 130
e 57 136
e 57 157
e 57 171
e 57 177
e 57 183
e 57 211
e 57 214
e 57 222
e 57 239
e 58 70
e 58 72
e 58 83
e 58 86
e 58 92
e 58 98
e 58 101
e 58 103
e 58 109
e 58 135
e 58 140
e 58 145
e 58 151
e 58 163
e 58 185
e 58 187
e 58 192
e 58 195
e 58 199
e 58 219
e 58 230
e 58 235
e 58 239
e 58 242
e 59 62
e 59 66
e 59 78
e 59 84
e 59 91
e 59 95
e 59 118
e 59 140
e 59 153
e 59 154
e 59 159
e 59 166
e 59 205
e 59 207
e 59 221
e 59 225
e 59 228
e 59 232
e 59 242
e 59 248
e 60 61
e 60 66
e 60 70
e 60 71
e 60 81
e 60 92
e 60 96
e 60 109
e 60 113
e 60 118
e 60 138
e 60 165
e 60 166
e 60 168
e 60 182
e 60 190
e 60 211
e 60 235
e 60 236
e 60 238
e 60 246
e 61 85
e 61 96
e 61 101
e 61 123
e 61 125
e 61 132
e 61 134
e 61 142
e 61 147
e 61 149
e 61 156
e 61 166
e 61 178
e 61 185
e 61 198
e 61 200
e 61 216
e 61 228
e 61 240
e 62 72
e 62 79
e 62 82
e 62 85
e 62 107
e 62 108
e 62 111
e 62 116
e 62 117
e 62 128
e 62 145
e 62 146
e 62 166
e 62 171
e 62 178
e 62 191
e 62 196
e 62 215
e 62 222
e 62 228
e 62 240
e 63 72
e 63 73
e 63 83
e 63 96
e 63 104
e 63 124
e 63 129
e 63 130
e 63 137
e 63 153
e 63 155
e 63 184
e 63 190
e 63 201
e 63 223
e 63 240
e 64 73
e 64 76
e 64 78
e 64 82
e 64 90
e 64 104
e 64 106
e 64 116
e 64 128
e 64 129
e 64 133
e 64 134
e 64 152
e 64 160
e 64 164
e 64 174
e 64 188
e 64 199
e 64 213
e 64 216
e 65 71
e 65 84
e 65 93
e 65 155
e 65 157
e 65 172
e 65 178
e 65 183
e 65 209
e 65 229
e 65 247
e 66 68
e 66 86
e 66 88
e 66 113
e 66 115
e 66 126
e 66 143
e 66 158
e 66 160
e 66 166
e 66 170
e 66 172
e 66 183
e 66 222
e 66 228
e 66 234
e 66 247
e 66 248
e 67 68
e 67 69
e 67 78
e 67 99
e 67 103
e 67 124
e 67 133
e 67 137
e 67 140
e 67 145
e 67 148
e 67 166
e 67 200
e 68 73
e 68 74
e 68 79
e 68 83
e 68 89
e 68 100
e 68 115
e 68 125
e 68 128
e 68 129
e 68 132
e 68 139
e 68 141
e 68 158
e 68 162
e 68 171
e 68 186
e 68 197
e 68 244
e 69 78
e 69 82
e 69 90
e 69 97
e 69 99
e 69 104
e 69 105
e 69 106
e 69 120
e 69 128
e 69 131
e 69 144
e 69 146
e 69 155
e 69 162
e 69 174
e 69 181
e 69 201
e 69 208
e 69 225
e 70 73
e 70 84
e 70 87
e 70 88
e 70 95
e 70 102
e 70 103
e 70 112
e 70 117
e 70 126
e 70 134
e 70 137
e 70 146
e 70 154
e 70 156
e 70 158
e 70 166
e 70 176
e 70 191
e 70 193
e 70 199
e 70 201
e 70 202
e 70 209
e 70 214
e 70 215
e 70 217
e 70 219
e 70 235
e 70 241
e 71 74
e 71 80
e 71 81
e 71 85
e 71 97
e 71 100
e 71 103
e 71 110
e 71 114
e 71 127
e 71 153
e 71 155
e 71 156
e 71 157
e 71 175
e 71 194
e 71 198
e 71 211
e 71 220
e 71 243
e 71 244
e 71 247
e 72 76
e 72 79
e 72 91
e 72 93
e 72 113
e 72 120
e 72 146
e 72 175
e 72 180
e 72 186
e 72 188
e 72 215
e 72 216
e 72 224
e 73 76
e 73 82
e 73 85
e 73 88
e 73 91
e 73 105
e 73 107
e 73 109
e 73 132
e 73 134
e 73 135
e 73 138
e 73 145
e 73 149
e 73 152
e 73 162
e 73 178
e 73 190
e 73 194
e 73 195
e 73 203
e 73 204
e 73 220
e 73 244
e 73 248
e 74 81
e 74 85
e 74 89
e 74 95
e 74 96
e 74 105
e 74 106
e 74 118
e 74 126
e 74 127
e 74 163
e 74 164
e 74 172
e 74 184
e 74 187
e 74 191
e 74 195
e 74 199
e 74 221
e 74 233
e 74 237
e 74 243
e 75 77
e 75 110
e 75 123
e 75 138
e 75 155
e 75 173
e 75 174
e 75 189
e 75 216
e 75 239
e 75 246
e 76 77
e 76 88
e 76 92
e 76 93
e 76 96
e 76 98
e 76 99
e 76 103
e 76 115
e 76 119
e 76 128
e 76 135
e 76 156
e 76 168
e 76 173
e 76 185
e 76 218
e 76 219
e 76 227
e 77 87
e 77 125
e 77 126
e 77 130
e 77 131
e 77 163
e 77 180
e 77 182
e 77 184
e 77 230
e 77 241
e 78 87
e 78 95
e 78 97
e 78 131
e 78 132
e 78 142
e 78 144
e 78 153
e 78 159
e 78 160
e 78 161
e 78 162
e 78 182
e 78 190
e 78 192
e 78 194
e 78 211
e 78 215
e 78 217
e 78 218
e 78 222
e 79 88
e 79 118
e 79 119
e 79 123
e 79 132
e 79 136
e 79 140
e 79 147
e 79 167
e 79 171
e 79 190
e 79 206
e 79 208
e 79 211
e 79 217
e 79 243
e 79 247
e 79 248
e 80 85
e 80 88
e 80 102
e 80 111
e 80 113
e 80 115
e 80 120
e 80 121
e 80 136
e 80 173
e 80 191
e 80 192
e 80 218
e 80 229
e 81 86
e 81 88
e 81 99
e 81 104
e 81 109
e 81 162
e 81 222
e 81 239
e 81 249
e 82 87
e 82 98
e 82 100
e 82 104
e 82 107
e 82 108
e 82 119
e 82 132
e 82 136
e 82 139
e 82 142
e 82 151
e 82 180
e 82 181
e 82 200
e 82 202
e 82 210
e 82 214
e 82 234
e 83 84
e 83 91
e 83 96
e 83 107
e 83 111
e 83 113
e 83 129
e 83 133
e 83 135
e 83 142
e 83 173
e 83 183
e 83 207
e 83 218
e 83 222
e 83 237
e 83 238
e 84 86
e 84 88
e 84 90
e 84 95
e 84 96
e 84 107
e 84 122
e 84 123
e 84 127
e 84 146
e 84 177
e 84 240
e 85 86
e 85 98
e 85 116
e 85 123
e 85 133
e 85 138
e 85 146
e 85 148
e 85 154
e 85 156
e 85 158
e 85 159
e 85 169
e 85 210
e 85 211
e 85 233
e 85 239
e 86 88
e 86 96
e 86 108
e 86 112
e 86 114
e 86 124
e 86 141
e 86 143
e 86 155
e 86 166
e 86 170
e 86 171
e 86 177
e 86 223
e 87 89
e 87 92
e 87 121
e 87 128
e 87 130
e 87 155
e 87 170
e 87 173
e 87 188
e 87 216
e 87 220
e 87 247
e 88 91
e 88 92
e 88 106
e 88 113
e 88 135
e 88 149
e 88 151
e 88 157
e 88 159
e 88 160
e 88 165
e 88 177
e 88 196
e 88 197
e 88 231
e 88 234
e 88 238
e 88 241
e 89 102
e 89 107
e 89 160
e 89 240
e 90 97
e 90 106
e 90 142
e 90 167
e 90 169
e 90 170
e 90 177
e 90 194
e 90 197
e 90 198
e 90 199
e 90 224
e 90 236
e 91 94
e 91 105
e 91 107
e 91 114
e 91 120
e 91 122
e 91 132
e 91 134
e 91 138
e 91 140
e 91 153
e 91 171
e 91 174
e 91 215
e 91 216
e 91 240
e 92 108
e 92 115
e 92 127
e 92 132
e 92 146
e 92 151
e 92 159
e 92 166
e 92 188
e 92 199
e 92 221
e 93 94
e 93 96
e 93 97
e 93 104
e 93 109
e 93 113
e 93 115
e 93 137
e 93 139
e 93 146
e 93 184
e 93 194
e 93 217
e 93 220
e 93 221
e 94 104
e 94 137
e 94 141
e 94 147
e 94 189
e 94 198
e 94 200
e 94 202
e 94 212
e 94 218
e 94 223
e 94 239
e 95 97
e 95 99
e 95 105
e 95 111
e 95 130
e 95 146
e 95 147
e 95 172
e 95 173
e 95 174
e 95 182
e 95 187
e 95 193
e 95 215
e 95 235
e 95 236
e 95 243
e 95 245
e 95 246
e 96 107
e 96 117
e 96 118
e 96 122
e 96 136
e 96 141
e 96 156
e 96 158
e 96 163
e 96 171
e 96 183
e 96 190
e 96 192
e 96 222
e 96 223
e 96 232
e 96 249
e 97 108
e 97 141
e 97 162
e 97 194
e 97 202
e 97 241
e 97 248
e 98 112
e 98 116
e 98 123
e 98 124
e 98 197
e 98 198
e 98 209
e 98 229
e 98 243
e 99 102
e 99 108
e 99 129
e 99 133
e 99 136
e 99 163
e 99 204
e 99 226
e 99 248
e 99 249
e 100 117
e 100 141
e 100 152
e 100 164
e 100 171
e 100 183
e 100 190
e 101 102
e 101 116
e 101 121
e 101 122
e 101 130
e 101 140
e 101 141
e 101 162
e 101 165
e 101 166
e 101 169
e 101 205
e 101 217
e 101 219
e 102 105
e 102 109
e 102 122
e 102 126
e 102 141
e 102 144
e 102 152
e 102 156
e 102 173
e 102 185
e 102 197
e 102 210
e 102 229
e 102 233
e 103 135
e 103 136
e 103 141
e 103 143
e 103 155
e 103 159
e 103 176
e 103 181
e 103 192
e 103 229
e 103 236
e 104 120
e 104 160
e 104 161
e 104 189
e 105 111
e 105 116
e 105 122
e 105 140
e 105 150
e 105 155
e 105 161
e 105 169
e 105 171
e 105 210
e 105 224
e 105 231
e 105 244
e 106 126
e 106 171
e 106 174
e 106 181
e 106 201
e 106 248
e 107 110
e 107 131
e 107 144
e 107 163
e 107 182
e 107 192
e 107 204
e 107 210
e 107 245
e 108 169
e 108 176
e 108 179
e 108 180
e 108 191
e 108 194
e 108 202
e 109 122
e 109 126
e 109 135
e 109 161
e 109 202
e 109 214
e 110 127
e 110 170
e 110 186
e 110 196
e 110 207
e 110 213
e 110 223
e 110 238
e 110 242
e 111 112
e 111 115
e 111 131
e 111 140
e 111 155
e 111 160
e 111 164
e 111 171
e 111 172
e 111 181
e 111 190
e 111 191
e 111 200
e 111 203
e 111 205
e 111 208
e 112 120
e 112 121
e 112 139
e 112 141
e 112 149
e 112 157
e 112 164
e 112 177
e 112 185
e 112 195
e 112 197
e 112 199
e 112 242
e 113 114
e 113 130
e 113 140
e 113 147
e 113 153
e 113 177
e 113 183
e 113 190
e 113 211
e 113 214
e 113 224
e 113 226
e 113 235
e 113 249
e 114 124
e 114 131
e 114 138
e 114 147
e 114 177
e 114 196
e 114 235
e 115 119
e 115 130
e 115 149
e 115 164
e 115 177
e 115 188
e 115 232
e 115 236
e 115 238
e 116 132
e 116 133
e 116 139
e 116 140
e 116 148
e 116 167
e 116 186
e 116 187
e 116 188
e 116 208
e 116 213
e 117 118
e 117 147
e 117 176
e 117 217
e 117 227
e 117 244
e 118 135
e 118 157
e 118 177
e 118 223
e 118 225
e 119 133
e 119 137
e 119 139
e 119 145
e 119 150
e 119 162
e 119 176
e 119 209
e 119 212
e 119 227
e 119 230
e 119 249
e 120 124
e 120 142
e 120 156
e 120 167
e 120 201
e 120 212
e 120 219
e 120 220
e 120 240
e 121 123
e 121 144
e 121 162
e 121 172
e 121 176
e 121 190
e 121 192
e 121 232
e 121 241
e 122 160
e 122 175
e 122 187
e 122 196
e 122 200
e 122 204
e 122 216
e 122 218
e 123 131
e 123 165
e 123 211
e 123 214
e 123 230
e 124 142
e 124 181
e 124 196
e 124 235
e 124 245
e 125 133
e 125 143
e 125 146
e 125 149
e 125 166
e 125 192
e 125 193
e 125 240
e 126 157
e 126 162
e 126 170
e 126 175
e 126 197
e 126 228
e 127 128
e 127 148
e 127 153
e 127 211
e 127 212
e 127 224
e 127 228
e 127 232
e 128 131
e 128 143
e 128 156
e 128 165
e 128 218
e 128 225
e 128 234
e 129 147
e 129 150
e 129 151
e 129 153
e 129 159
e 129 164
e 129 168
e 129 175
e 129 176
e 129 181
e 129 183
e 129 200
e 129 206
e 129 207
e 129 225
e 129 234
e 129 238
e 130 201
e 130 204
e 130 210
e 130 227
e 130 228
e 130 239
e 130 249
e 131 134
e 131 139
e 131 149
e 131 150
e 131 175
e 131 183
e 131 208
e 131 213
e 131 223
e 131 226
e 132 171
e 132 180
e 132 182
e 132 230
e 132 242
e 133 145
e 133 146
e 133 216
e 133 219
e 133 230
e 134 137
e 134 147
e 134 148
e 134 164
e 134 181
e 134 182
e 134 189
e 134 198
e 134 208
e 134 215
e 134 228
e 134 242
e 135 185
e 135 199
e 135 220
e 136 144
e 136 169
e 136 174
e 136 177
e 136 180
e 136 197
e 136 204
e 136 207
e 136 214
e 136 215
e 136 232
e 137 140
e 137 168
e 137 193
e 137 209
e 137 220
e 137 237
e 138 148
e 138 169
e 138 212
e 138 225
e 138 237
e 138 245
e 139 181
e 139 194
e 139 220
e 140 145
e 140 148
e 140 149
e 140 152
e 140 162
e 140 173
e 140 175
e 140 233
e 140 244
e 141 154
e 141 168
e 141 194
e 141 195
e 141 206
e 141 216
e 141 227
e 141 246
e 142 168
e 142 174
e 142 197
e 142 202
e 142 206
e 143 163
e 143 185
e 143 241
e 144 168
e 144 171
e 144 178
e 144 180
e 144 187
e 144 203
e 144 248
e 145 195
e 146 169
e 146 191
e 146 198
e 147 148
e 147 149
e 147 156
e 147 162
e 147 197
e 147 200
e 147 202
e 147 203
e 147 223
e 147 226
e 147 231
e 147 237
e 147 242
e 148 158
e 148 162
e 148 169
e 148 182
e 148 187
e 148 192
e 148 193
e 148 216
e 148 221
e 148 228
e 148 243
e 149 159
e 149 175
e 149 188
e 149 206
e 149 208
e 149 224
e 149 240
e 149 244
e 149 247
e 150 170
e 150 179
e 150 219
e 150 234
e 151 155
e 151 161
e 151 178
e 151 198
e 151 219
e 152 186
e 152 187
e 152 212
e 152 236
e 152 238
e 153 157
e 153 172
e 153 174
e 153 184
e 153 198
e 154 177
e 154 189
e 154 205
e 154 242
e 155 158
e 155 163
e 155 184
e 155 191
e 155 204
e 155 205
e 155 221
e 155 225
e 155 243
e 156 159
e 156 189
e 156 203
e 157 158
e 157 209
e 157 222
e 157 227
e 157 237
e 158 160
e 158 180
e 158 186
e 158 204
e 158 241
e 159 161
e 159 166
e 159 171
e 159 176
e 159 183
e 159 196
e 159 206
e 160 177
e 160 188
e 160 197
e 160 198
e 160 213
e 161 180
e 161 199
e 161 214
e 161 223
e 162 191
e 162 194
e 162 214
e 162 224
e 162 225
e 162 242
e 162 244
e 163 165
e 163 215
e 163 241
e 164 191
e 164 205
e 165 188
e 165 192
e 165 203
e 165 208
e 165 209
e 165 227
e 165 248
e 166 231
e 166 238
e 166 243
e 167 169
e 167 206
e 168 198
e 168 203
e 168 204
e 168 215
e 168 231
e 168 246
e 168 249
e 169 182
e 169 207
e 169 228
e 169 246
e 170 211
e 170 235
e 171 176
e 171 223
e 171 236
e 172 220
e 172 229
e 173 182
e 173 240
e 174 184
e 174 208
e 174 233
e 174 239
e 175 176
e 175 201
e 175 230
e 175 233
e 175 247
e 176 193
e 176 209
e 176 210
e 176 226
e 177 178
e 177 199
e 177 209
e 177 214
e 177 234
e 177 240
e 178 212
e 178 221
e 178 246
e 179 205
e 179 214
e 179 221
e 179 229
e 179 248
e 180 185
e 180 187
e 180 198
e 181 184
e 181 212
e 181 215
e 181 223
e 181 236
e 183 189
e 183 196
e 183 222
e 183 226
e 183 246
e 184 190
e 184 212
e 184 224
e 185 231
e 185 232
e 186 194
e 186 205
e 187 195
e 187 208
e 187 222
e 187 229
e 187 238
e 188 243
e 189 201
e 190 204
e 191 209
e 191 215
e 192 207
e 192 216
e 192 226
e 193 194
e 193 196
e 193 231
e 193 246
e 194 211
e 194 220
e 194 229
e 194 236
e 195 218
e 195 235
e 195 249
e 196 219
e 196 224
e 197 206
e 197 241
e 198 210
e 198 229
e 199 213
e 199 216
e 199 220
e 199 240
e 200 210
e 200 249
e 201 213
e 202 208
e 202 210
e 202 226
e 202 236
e 202 238
e 204 207
e 204 213
e 204 228
e 204 249
e 205 206
e 205 207
e 205 228
e 205 242
e 206 216
e 206 230
e 207 213
e 207 226
e 208 225
e 208 226
e 208 231
e 210 237
e 210 238
e 210 244
e 212 238
e 212 240
e 212 247
e 213 234
e 215 218
e 215 220
e 215 221
e 215 224
e 215 243
e 216 221
e 216 228
e 216 236
e 216 243
e 216 248
e 217 227
e 222 234
e 225 233
e 225 234
e 225 236
e 225 247
e 227 232
e 227 249
e 228 240
e 229 233
e 230 233
e 232 242
e 233 237
e 233 246
